26209
41280
70911
84382
98797
7039
18405
97984
74028
49270
35952
83931
92611
97870
68268
93308
27304
11809
90834
24320
10379
13815
438
81
75108
9598
83656
15050
11176
43006
23306
97860
81279
94926
67657
81998
18907
61868
82319
22744
24500
22166
18737
64387
27033
70205
32039
79492
87598
67449
27436
19802
86671
80566
47261
70577
92049
572
82975
61982
52347
41242
56861
16377
70489
81650
18994
91480
78880
62153
79678
86977
52156
13509
71234
38096
10267
14440
96036
17012
98034
68884
21389
26056
4108
66745
70378
89296
44301
92359
74395
44016
43157
25019
79236
57201
51469
95394
46227
31700